0
0
0
0
0
0
0
0
0
12
12
12
12
12
12
12
12
 8
 8
 8
 8
 8
 8
 8
 8
 4
 4
 4
 4
 4
 4
 4
 4
 2
 2
 2
 2
 2
 2
 2
 2
 1
 1
 1
 1
 1
 1
 1
 1
12
12
12
12
12
12
12
12
 8
 8
 8
 8
 8
 8
 8
 8
 4
 4
 4
 4
 4
 4
 4
 4
 2
 2
 2
 2
 2
 2
 2
 2
 1
 1
 1
 1
 1
 1
 1
 1
12
12
12
12
12
12
12
12
 8
 8
 8
 8
 8
 8
 8
 8
 4
 4
 4
 4
 4
 4
 4
 4
 2
 2
 2
 2
 2
 2
 2
 2
 1
 1
 1
 1
 1
 1
 1
 1
12
12
12
12
12
12
12
12
 8
 8
 8
 8
 8
 8
 8
 8
 4
 4
 4
 4
 4
 4
 4
 4
 2
 2
 2
 2
 2
 2
 2
 2
 1
 1
 1
 1
 1
 1
 1
 1
12
12
12
12
12
12
12
12
 8
 8
 8
 8
 8
 8
 8
 8
 4
 4
 4
 4
 4
 4
 4
 4
 2
 2
 2
 2
 2
 2
 2
 2
 1
 1
 1
 1
 1
 1
 1
 1
12
12
12
12
12
12
12
12
 8
 8
 8
 8
 8
 8
 8
 8
 4
 4
 4
 4
 4
 4
 4
 4
 2
 2
 2
 2
 2
 2
 2
 2
 1
 1
 1
 1
 1
 1
 1
 1
12
12
12
12
12
12
12
12
 8
 8
 8
 8
 8
 8
 8
 8
 4
 4
 4
 4
 4
 4
 4
 4
 2
 2
 2
 2
 2
 2
 2
 2
 1
 1
 1
 1
 1
 1
 1
 1
12
12
12
12
12
12
12
12
 8
 8
 8
 8
 8
 8
 8
 8
 4
 4
 4
 4
 4
 4
 4
 4
 2
 2
 2
 2
 2
 2
 2
 2
 1
 1
 1
 1
 1
 1
 1
 1
12
12
12
12
12
12
12
12
 8
 8
 8
 8
 8
 8
 8
 8
 4
 4
 4
 4
 4
 4
 4
 4
 2
 2
 2
 2
 2
 2
 2
 2
 1
 1
 1
 1
 1
 1
 1
 1
